p cnf 12 50 
2 9 11 0
11 -1 -6 0
-11 12 -7 0
-5 8 -11 0
8 -12 9 0
-5 1 3 0
5 11 -3 0
8 -3 1 0
12 4 -2 0
12 -5 3 0
-5 9 1 0
4 -5 2 0
-6 -2 9 0
-9 -10 4 0
-4 12 6 0
-6 3 -8 0
2 8 12 0
-3 -10 12 0
-9 6 -1 0
-6 4 -5 0
12 -1 -3 0
-7 -3 -1 0
-4 3 1 0
-10 -12 11 0
-2 6 10 0
-3 11 -2 0
6 4 -5 0
3 1 10 0
5 8 11 0
-7 3 -4 0
7 -6 -1 0
-9 5 -12 0
8 -4 1 0
-2 -7 4 0
11 3 9 0
-5 -6 -3 0
11 2 12 0
-6 8 11 0
-12 -3 9 0
-5 9 7 0
-2 -7 4 0
-5 3 9 0
12 5 10 0
-5 -7 -2 0
-10 -7 -11 0
-11 4 2 0
-6 11 10 0
5 3 -2 0
-2 9 -12 0
10 -12 9 0
